
List of user-set options:

                                    Name   Value                used
                        file_print_level = 5                     yes
                   hessian_approximation = limited-memory        yes
                                  hsllib = /home/ggs24/packages/ThirdParty-HSL/.libs/libcoinhsl.so  yes
                           linear_solver = ma97                  yes
                                max_iter = 500                   yes
                             output_file = IPOPT.out             yes
                             print_level = 0                     yes
                      print_user_options = yes                   yes
                                      sb = yes                   yes
This is Ipopt version 3.14.7, running with linear solver ma97.

Number of nonzeros in equality constraint Jacobian...:       60
Number of nonzeros in inequality constraint Jacobian.:     3660
Number of nonzeros in Lagrangian Hessian.............:        0

Total number of variables............................:       15
                     variables with only lower bounds:        1
                variables with lower and upper bounds:        0
                     variables with only upper bounds:        0
Total number of equality constraints.................:        4
Total number of inequality constraints...............:      244
        inequality constraints with only lower bounds:        0
   inequality constraints with lower and upper bounds:      183
        inequality constraints with only upper bounds:       61

iter    objective    inf_pr   inf_du lg(mu)  ||d||  lg(rg) alpha_du alpha_pr  ls
   0  1.0000000e+01 2.29e+00 5.87e-05   0.0 0.00e+00    -  0.00e+00 0.00e+00   0
   1  1.1807731e+01 1.55e+00 3.63e+00  -1.0 4.97e+00    -  6.34e-01 3.63e-01f  1
   2  1.5755787e+01 5.17e-01 1.29e+01  -0.9 4.03e+00    -  2.63e-01 9.79e-01f  1
   3  2.0756463e+01 1.16e-01 6.60e+00  -1.4 5.00e+00    -  4.97e-01 1.00e+00h  1
   4  2.2978105e+01 4.44e-16 3.08e-01  -1.5 2.22e+00    -  9.96e-01 1.00e+00h  1
   5  2.2952920e+01 2.46e-04 5.81e-02  -2.4 1.77e-01    -  9.92e-01 1.00e+00h  1
   6  2.2824444e+01 1.22e-03 7.97e-02  -2.8 1.65e-01    -  9.98e-01 7.77e-01h  1
   7  2.2717726e+01 2.41e-04 3.28e-02  -3.4 1.12e-01    -  9.99e-01 9.52e-01h  1
   8  2.2697418e+01 4.85e-04 1.74e-02  -3.6 1.42e-01    -  9.86e-01 1.00e+00h  1
   9  2.2689580e+01 1.91e-04 1.33e-01  -4.5 4.92e-02    -  9.98e-01 7.46e-01h  1
iter    objective    inf_pr   inf_du lg(mu)  ||d||  lg(rg) alpha_du alpha_pr  ls
  10  2.2689590e+01 8.22e-06 4.44e-01  -4.4 1.22e-02    -  1.00e+00 8.31e-01h  1
  11  2.2689165e+01 2.69e-06 4.34e-01  -5.0 9.46e-03    -  1.00e+00 6.28e-01h  1
  12  2.2689190e+01 0.00e+00 9.33e-05  -5.0 4.07e-03    -  1.00e+00 1.00e+00h  1
  13  2.2689075e+01 3.55e-12 1.06e-01  -5.7 3.02e-03    -  8.90e-01 1.00e+00h  1
  14  2.2689067e+01 0.00e+00 2.16e-04  -5.8 3.70e-03    -  1.00e+00 1.00e+00h  1
  15  2.2689051e+01 0.00e+00 5.56e-04  -6.3 3.09e-03    -  9.97e-01 1.00e+00h  1
  16  2.2689048e+01 6.00e-09 5.48e-06  -8.0 1.96e-04    -  1.00e+00 6.92e-01h  1
  17  2.2689047e+01 3.51e-11 3.36e-06  -9.9 5.08e-05    -  1.00e+00 9.98e-01h  1
  18  2.2689047e+01 0.00e+00 1.72e-08 -11.0 2.42e-07    -  1.00e+00 1.00e+00h  1
  19  2.2689047e+01 4.44e-16 1.70e-11 -11.0 1.09e-10    -  1.00e+00 1.00e+00h  1

Number of Iterations....: 19

                                   (scaled)                 (unscaled)
Objective...............:   2.2689047098645318e+01    2.2689047098645318e+01
Dual infeasibility......:   1.7004092578432051e-11    1.7004092578432051e-11
Constraint violation....:   4.4408920985006262e-16    4.4408920985006262e-16
Variable bound violation:   0.0000000000000000e+00    0.0000000000000000e+00
Complementarity.........:   1.0000389296490552e-11    1.0000389296490552e-11
Overall NLP error.......:   1.7004092578432051e-11    1.7004092578432051e-11


Number of objective function evaluations             = 20
Number of objective gradient evaluations             = 20
Number of equality constraint evaluations            = 20
Number of inequality constraint evaluations          = 20
Number of equality constraint Jacobian evaluations   = 20
Number of inequality constraint Jacobian evaluations = 20
Number of Lagrangian Hessian evaluations             = 0
Total seconds in IPOPT                               = 0.622

EXIT: Optimal Solution Found.
